<?xml version = "1.0" encoding="UTF-8" standalone="yes"?>
<CPLEXSolution version="1.2">
 <header
   problemName="CompactDef"
   objectiveValue="40"
   solutionTypeValue="1"
   solutionTypeString="basic"
   solutionStatusValue="1"
   solutionStatusString="optimal"
   solutionMethodString="primal"
   primalFeasible="1"
   dualFeasible="1"
   simplexIterations="0"
   writeLevel="1"/>
 <quality
   epRHS="9.9999999999999995e-07"
   epOpt="9.9999999999999995e-07"
   maxPrimalInfeas="0"
   maxDualInfeas="0"
   maxPrimalResidual="0"
   maxDualResidual="0"
   maxX="1"
   maxPi="10"
   maxSlack="0"
   maxRedCost="0"
   kappa="1"/>
 <linearConstraints>
  <constraint name="SumResources" index="0" status="LL" slack="0" dual="10"/>
 </linearConstraints>
 <variables>
  <variable name="PathValue102" index="0" status="UL" value="1" reducedCost="-0"/>
  <variable name="PathValue103" index="1" status="BS" value="1" reducedCost="-0"/>
  <variable name="PathValue104" index="2" status="LL" value="0" reducedCost="-0"/>
  <variable name="PathValue105" index="3" status="UL" value="1" reducedCost="-0"/>
  <variable name="PathValue106" index="4" status="UL" value="1" reducedCost="-0"/>
 </variables>
</CPLEXSolution>
